pathCoverAllEdges.lp
max
 + p0Useex0y3s1t3
SUBJECT TO
p0nx0y3reachnx0y3 = 1
p0nx0y3reachnx4y1 = 0
p0nx0y3reachnx0y3 - p0nx0y3reachnx1y3 - 10000 p0Useex0y3s1t3 <= 0
p0nx0y3reachnx0y3 - p0nx0y3reachnx1y3 + 10000 p0Useex0y3s1t3 >= 0
p0nx0y3reachnx0y3 + p0nx0y3reachnx1y3 - 10000 p0Useex0y3s1t3 >= -9999
p0nx0y3reachnx0y3 + p0nx0y3reachnx1y3 + 10000 p0Useex0y3s1t3 <= 10001
p0nx0y3reachnx1y2 - p0nx0y3reachnx1y3 - 10000 p0Useex1y2s1t3 <= 0
p0nx0y3reachnx1y2 - p0nx0y3reachnx1y3 + 10000 p0Useex1y2s1t3 >= 0
p0nx0y3reachnx1y2 + p0nx0y3reachnx1y3 - 10000 p0Useex1y2s1t3 >= -9999
p0nx0y3reachnx1y2 + p0nx0y3reachnx1y3 + 10000 p0Useex1y2s1t3 <= 10001
p0nx0y3reachnx1y1 - p0nx0y3reachnx1y2 - 10000 p0Useex1y1s1t2 <= 0
p0nx0y3reachnx1y1 - p0nx0y3reachnx1y2 + 10000 p0Useex1y1s1t2 >= 0
p0nx0y3reachnx1y1 + p0nx0y3reachnx1y2 - 10000 p0Useex1y1s1t2 >= -9999
p0nx0y3reachnx1y1 + p0nx0y3reachnx1y2 + 10000 p0Useex1y1s1t2 <= 10001
p0nx0y3reachnx1y0 - p0nx0y3reachnx1y1 - 10000 p0Useex1y0s1t1 <= 0
p0nx0y3reachnx1y0 - p0nx0y3reachnx1y1 + 10000 p0Useex1y0s1t1 >= 0
p0nx0y3reachnx1y0 + p0nx0y3reachnx1y1 - 10000 p0Useex1y0s1t1 >= -9999
p0nx0y3reachnx1y0 + p0nx0y3reachnx1y1 + 10000 p0Useex1y0s1t1 <= 10001
p0nx0y3reachnx1y3 - p0nx0y3reachnx2y3 - 10000 p0Useex1y3s2t3 <= 0
p0nx0y3reachnx1y3 - p0nx0y3reachnx2y3 + 10000 p0Useex1y3s2t3 >= 0
p0nx0y3reachnx1y3 + p0nx0y3reachnx2y3 - 10000 p0Useex1y3s2t3 >= -9999
p0nx0y3reachnx1y3 + p0nx0y3reachnx2y3 + 10000 p0Useex1y3s2t3 <= 10001
p0nx0y3reachnx1y1 - p0nx0y3reachnx2y1 - 10000 p0Useex1y1s2t1 <= 0
p0nx0y3reachnx1y1 - p0nx0y3reachnx2y1 + 10000 p0Useex1y1s2t1 >= 0
p0nx0y3reachnx1y1 + p0nx0y3reachnx2y1 - 10000 p0Useex1y1s2t1 >= -9999
p0nx0y3reachnx1y1 + p0nx0y3reachnx2y1 + 10000 p0Useex1y1s2t1 <= 10001
p0nx0y3reachnx2y3 - p0nx0y3reachnx3y3 - 10000 p0Useex2y3s3t3 <= 0
p0nx0y3reachnx2y3 - p0nx0y3reachnx3y3 + 10000 p0Useex2y3s3t3 >= 0
p0nx0y3reachnx2y3 + p0nx0y3reachnx3y3 - 10000 p0Useex2y3s3t3 >= -9999
p0nx0y3reachnx2y3 + p0nx0y3reachnx3y3 + 10000 p0Useex2y3s3t3 <= 10001
p0nx0y3reachnx2y1 - p0nx0y3reachnx3y1 - 10000 p0Useex2y1s3t1 <= 0
p0nx0y3reachnx2y1 - p0nx0y3reachnx3y1 + 10000 p0Useex2y1s3t1 >= 0
p0nx0y3reachnx2y1 + p0nx0y3reachnx3y1 - 10000 p0Useex2y1s3t1 >= -9999
p0nx0y3reachnx2y1 + p0nx0y3reachnx3y1 + 10000 p0Useex2y1s3t1 <= 10001
p0nx0y3reachnx3y3 - p0nx0y3reachnx3y4 - 10000 p0Useex3y3s3t4 <= 0
p0nx0y3reachnx3y3 - p0nx0y3reachnx3y4 + 10000 p0Useex3y3s3t4 >= 0
p0nx0y3reachnx3y3 + p0nx0y3reachnx3y4 - 10000 p0Useex3y3s3t4 >= -9999
p0nx0y3reachnx3y3 + p0nx0y3reachnx3y4 + 10000 p0Useex3y3s3t4 <= 10001
p0nx0y3reachnx3y2 - p0nx0y3reachnx3y3 - 10000 p0Useex3y2s3t3 <= 0
p0nx0y3reachnx3y2 - p0nx0y3reachnx3y3 + 10000 p0Useex3y2s3t3 >= 0
p0nx0y3reachnx3y2 + p0nx0y3reachnx3y3 - 10000 p0Useex3y2s3t3 >= -9999
p0nx0y3reachnx3y2 + p0nx0y3reachnx3y3 + 10000 p0Useex3y2s3t3 <= 10001
p0nx0y3reachnx3y1 - p0nx0y3reachnx3y2 - 10000 p0Useex3y1s3t2 <= 0
p0nx0y3reachnx3y1 - p0nx0y3reachnx3y2 + 10000 p0Useex3y1s3t2 >= 0
p0nx0y3reachnx3y1 + p0nx0y3reachnx3y2 - 10000 p0Useex3y1s3t2 >= -9999
p0nx0y3reachnx3y1 + p0nx0y3reachnx3y2 + 10000 p0Useex3y1s3t2 <= 10001
p0nx0y3reachnx3y3 - p0nx0y3reachnx4y3 - 10000 p0Useex3y3s4t3 <= 0
p0nx0y3reachnx3y3 - p0nx0y3reachnx4y3 + 10000 p0Useex3y3s4t3 >= 0
p0nx0y3reachnx3y3 + p0nx0y3reachnx4y3 - 10000 p0Useex3y3s4t3 >= -9999
p0nx0y3reachnx3y3 + p0nx0y3reachnx4y3 + 10000 p0Useex3y3s4t3 <= 10001
p0nx0y3reachnx3y1 - p0nx0y3reachnx4y1 - 10000 p0Useex3y1s4t1 <= 0
p0nx0y3reachnx3y1 - p0nx0y3reachnx4y1 + 10000 p0Useex3y1s4t1 >= 0
p0nx0y3reachnx3y1 + p0nx0y3reachnx4y1 - 10000 p0Useex3y1s4t1 >= -9999
p0nx0y3reachnx3y1 + p0nx0y3reachnx4y1 + 10000 p0Useex3y1s4t1 <= 10001
p0nx0y3reachnx1y0 - p0nx0y3reachnx2y0 - 10000 p0Useex1y0s2t0 <= 0
p0nx0y3reachnx1y0 - p0nx0y3reachnx2y0 + 10000 p0Useex1y0s2t0 >= 0
p0nx0y3reachnx1y0 + p0nx0y3reachnx2y0 - 10000 p0Useex1y0s2t0 >= -9999
p0nx0y3reachnx1y0 + p0nx0y3reachnx2y0 + 10000 p0Useex1y0s2t0 <= 10001
p0nx0y3reachnx2y0 - p0nx0y3reachnx2y1 - 10000 p0Useex2y0s2t1 <= 0
p0nx0y3reachnx2y0 - p0nx0y3reachnx2y1 + 10000 p0Useex2y0s2t1 >= 0
p0nx0y3reachnx2y0 + p0nx0y3reachnx2y1 - 10000 p0Useex2y0s2t1 >= -9999
p0nx0y3reachnx2y0 + p0nx0y3reachnx2y1 + 10000 p0Useex2y0s2t1 <= 10001
p0nx0y3reachnx4y1 - p0nx0y3reachnx4y2 - 10000 p0Useex4y1s4t2 <= 0
p0nx0y3reachnx4y1 - p0nx0y3reachnx4y2 + 10000 p0Useex4y1s4t2 >= 0
p0nx0y3reachnx4y1 + p0nx0y3reachnx4y2 - 10000 p0Useex4y1s4t2 >= -9999
p0nx0y3reachnx4y1 + p0nx0y3reachnx4y2 + 10000 p0Useex4y1s4t2 <= 10001
p0nx0y3reachnx4y2 - p0nx0y3reachnx4y3 - 10000 p0Useex4y2s4t3 <= 0
p0nx0y3reachnx4y2 - p0nx0y3reachnx4y3 + 10000 p0Useex4y2s4t3 >= 0
p0nx0y3reachnx4y2 + p0nx0y3reachnx4y3 - 10000 p0Useex4y2s4t3 >= -9999
p0nx0y3reachnx4y2 + p0nx0y3reachnx4y3 + 10000 p0Useex4y2s4t3 <= 10001
p0nx0y3reachnx3y4 - p0nx0y3reachnx4y4 - 10000 p0Useex3y4s4t4 <= 0
p0nx0y3reachnx3y4 - p0nx0y3reachnx4y4 + 10000 p0Useex3y4s4t4 >= 0
p0nx0y3reachnx3y4 + p0nx0y3reachnx4y4 - 10000 p0Useex3y4s4t4 >= -9999
p0nx0y3reachnx3y4 + p0nx0y3reachnx4y4 + 10000 p0Useex3y4s4t4 <= 10001
p0nx0y3reachnx4y3 - p0nx0y3reachnx4y4 - 10000 p0Useex4y3s4t4 <= 0
p0nx0y3reachnx4y3 - p0nx0y3reachnx4y4 + 10000 p0Useex4y3s4t4 >= 0
p0nx0y3reachnx4y3 + p0nx0y3reachnx4y4 - 10000 p0Useex4y3s4t4 >= -9999
p0nx0y3reachnx4y3 + p0nx0y3reachnx4y4 + 10000 p0Useex4y3s4t4 <= 10001
p0Flowex0y3s1t3nx0y3 + 10000 p0Useex0y3s1t3 <= 10000
p0Flowex0y3s1t3nx0y3 - 10000 p0Useex0y3s1t3 >= -10000
p0Flowex0y3s1t3nx4y1 + 10000 p0Useex0y3s1t3 <= 10000
p0Flowex0y3s1t3nx4y1 - 10000 p0Useex0y3s1t3 >= -10000
p0Flowex1y2s1t3nx0y3 + 10000 p0Useex1y2s1t3 <= 10000
p0Flowex1y2s1t3nx0y3 - 10000 p0Useex1y2s1t3 >= -10000
p0Flowex1y2s1t3nx4y1 + 10000 p0Useex1y2s1t3 <= 10000
p0Flowex1y2s1t3nx4y1 - 10000 p0Useex1y2s1t3 >= -10000
p0Flowex1y1s1t2nx0y3 + 10000 p0Useex1y1s1t2 <= 10000
p0Flowex1y1s1t2nx0y3 - 10000 p0Useex1y1s1t2 >= -10000
p0Flowex1y1s1t2nx4y1 + 10000 p0Useex1y1s1t2 <= 10000
p0Flowex1y1s1t2nx4y1 - 10000 p0Useex1y1s1t2 >= -10000
p0Flowex1y0s1t1nx0y3 + 10000 p0Useex1y0s1t1 <= 10000
p0Flowex1y0s1t1nx0y3 - 10000 p0Useex1y0s1t1 >= -10000
p0Flowex1y0s1t1nx4y1 + 10000 p0Useex1y0s1t1 <= 10000
p0Flowex1y0s1t1nx4y1 - 10000 p0Useex1y0s1t1 >= -10000
p0Flowex1y3s2t3nx0y3 + 10000 p0Useex1y3s2t3 <= 10000
p0Flowex1y3s2t3nx0y3 - 10000 p0Useex1y3s2t3 >= -10000
p0Flowex1y3s2t3nx4y1 + 10000 p0Useex1y3s2t3 <= 10000
p0Flowex1y3s2t3nx4y1 - 10000 p0Useex1y3s2t3 >= -10000
p0Flowex1y1s2t1nx0y3 + 10000 p0Useex1y1s2t1 <= 10000
p0Flowex1y1s2t1nx0y3 - 10000 p0Useex1y1s2t1 >= -10000
p0Flowex1y1s2t1nx4y1 + 10000 p0Useex1y1s2t1 <= 10000
p0Flowex1y1s2t1nx4y1 - 10000 p0Useex1y1s2t1 >= -10000
p0Flowex2y3s3t3nx0y3 + 10000 p0Useex2y3s3t3 <= 10000
p0Flowex2y3s3t3nx0y3 - 10000 p0Useex2y3s3t3 >= -10000
p0Flowex2y3s3t3nx4y1 + 10000 p0Useex2y3s3t3 <= 10000
p0Flowex2y3s3t3nx4y1 - 10000 p0Useex2y3s3t3 >= -10000
p0Flowex2y1s3t1nx0y3 + 10000 p0Useex2y1s3t1 <= 10000
p0Flowex2y1s3t1nx0y3 - 10000 p0Useex2y1s3t1 >= -10000
p0Flowex2y1s3t1nx4y1 + 10000 p0Useex2y1s3t1 <= 10000
p0Flowex2y1s3t1nx4y1 - 10000 p0Useex2y1s3t1 >= -10000
p0Flowex3y3s3t4nx0y3 + 10000 p0Useex3y3s3t4 <= 10000
p0Flowex3y3s3t4nx0y3 - 10000 p0Useex3y3s3t4 >= -10000
p0Flowex3y3s3t4nx4y1 + 10000 p0Useex3y3s3t4 <= 10000
p0Flowex3y3s3t4nx4y1 - 10000 p0Useex3y3s3t4 >= -10000
p0Flowex3y2s3t3nx0y3 + 10000 p0Useex3y2s3t3 <= 10000
p0Flowex3y2s3t3nx0y3 - 10000 p0Useex3y2s3t3 >= -10000
p0Flowex3y2s3t3nx4y1 + 10000 p0Useex3y2s3t3 <= 10000
p0Flowex3y2s3t3nx4y1 - 10000 p0Useex3y2s3t3 >= -10000
p0Flowex3y1s3t2nx0y3 + 10000 p0Useex3y1s3t2 <= 10000
p0Flowex3y1s3t2nx0y3 - 10000 p0Useex3y1s3t2 >= -10000
p0Flowex3y1s3t2nx4y1 + 10000 p0Useex3y1s3t2 <= 10000
p0Flowex3y1s3t2nx4y1 - 10000 p0Useex3y1s3t2 >= -10000
p0Flowex3y3s4t3nx0y3 + 10000 p0Useex3y3s4t3 <= 10000
p0Flowex3y3s4t3nx0y3 - 10000 p0Useex3y3s4t3 >= -10000
p0Flowex3y3s4t3nx4y1 + 10000 p0Useex3y3s4t3 <= 10000
p0Flowex3y3s4t3nx4y1 - 10000 p0Useex3y3s4t3 >= -10000
p0Flowex3y1s4t1nx0y3 + 10000 p0Useex3y1s4t1 <= 10000
p0Flowex3y1s4t1nx0y3 - 10000 p0Useex3y1s4t1 >= -10000
p0Flowex3y1s4t1nx4y1 + 10000 p0Useex3y1s4t1 <= 10000
p0Flowex3y1s4t1nx4y1 - 10000 p0Useex3y1s4t1 >= -10000
p0Flowex1y0s2t0nx0y3 + 10000 p0Useex1y0s2t0 <= 10000
p0Flowex1y0s2t0nx0y3 - 10000 p0Useex1y0s2t0 >= -10000
p0Flowex1y0s2t0nx4y1 + 10000 p0Useex1y0s2t0 <= 10000
p0Flowex1y0s2t0nx4y1 - 10000 p0Useex1y0s2t0 >= -10000
p0Flowex2y0s2t1nx0y3 + 10000 p0Useex2y0s2t1 <= 10000
p0Flowex2y0s2t1nx0y3 - 10000 p0Useex2y0s2t1 >= -10000
p0Flowex2y0s2t1nx4y1 + 10000 p0Useex2y0s2t1 <= 10000
p0Flowex2y0s2t1nx4y1 - 10000 p0Useex2y0s2t1 >= -10000
p0Flowex4y1s4t2nx0y3 + 10000 p0Useex4y1s4t2 <= 10000
p0Flowex4y1s4t2nx0y3 - 10000 p0Useex4y1s4t2 >= -10000
p0Flowex4y1s4t2nx4y1 + 10000 p0Useex4y1s4t2 <= 10000
p0Flowex4y1s4t2nx4y1 - 10000 p0Useex4y1s4t2 >= -10000
p0Flowex4y2s4t3nx0y3 + 10000 p0Useex4y2s4t3 <= 10000
p0Flowex4y2s4t3nx0y3 - 10000 p0Useex4y2s4t3 >= -10000
p0Flowex4y2s4t3nx4y1 + 10000 p0Useex4y2s4t3 <= 10000
p0Flowex4y2s4t3nx4y1 - 10000 p0Useex4y2s4t3 >= -10000
p0Flowex3y4s4t4nx0y3 + 10000 p0Useex3y4s4t4 <= 10000
p0Flowex3y4s4t4nx0y3 - 10000 p0Useex3y4s4t4 >= -10000
p0Flowex3y4s4t4nx4y1 + 10000 p0Useex3y4s4t4 <= 10000
p0Flowex3y4s4t4nx4y1 - 10000 p0Useex3y4s4t4 >= -10000
p0Flowex4y3s4t4nx0y3 + 10000 p0Useex4y3s4t4 <= 10000
p0Flowex4y3s4t4nx0y3 - 10000 p0Useex4y3s4t4 >= -10000
p0Flowex4y3s4t4nx4y1 + 10000 p0Useex4y3s4t4 <= 10000
p0Flowex4y3s4t4nx4y1 - 10000 p0Useex4y3s4t4 >= -10000
 - p0Flowex0y3s1t3nx0y3 + p0nx0y3SuperFlownx0y3 - p0nx0y3Conservenx0y3 = 0
p0nx4y1SuperFlownx0y3 = 0
 + p0Flowex3y1s4t1nx0y3 - p0Flowex4y1s4t2nx0y3 + p0nx4y1SuperFlownx0y3 - p0nx4y1Conservenx0y3 = 0
p0nx1y3SuperFlownx0y3 = 0
 + p0Flowex0y3s1t3nx0y3 + p0Flowex1y2s1t3nx0y3 - p0Flowex1y3s2t3nx0y3 + p0nx1y3SuperFlownx0y3 - p0nx1y3Conservenx0y3 = 0
p0nx1y2SuperFlownx0y3 = 0
 - p0Flowex1y2s1t3nx0y3 + p0Flowex1y1s1t2nx0y3 + p0nx1y2SuperFlownx0y3 - p0nx1y2Conservenx0y3 = 0
p0nx1y1SuperFlownx0y3 = 0
 - p0Flowex1y1s1t2nx0y3 + p0Flowex1y0s1t1nx0y3 - p0Flowex1y1s2t1nx0y3 + p0nx1y1SuperFlownx0y3 - p0nx1y1Conservenx0y3 = 0
p0nx1y0SuperFlownx0y3 = 0
 - p0Flowex1y0s1t1nx0y3 - p0Flowex1y0s2t0nx0y3 + p0nx1y0SuperFlownx0y3 - p0nx1y0Conservenx0y3 = 0
p0nx2y3SuperFlownx0y3 = 0
 + p0Flowex1y3s2t3nx0y3 - p0Flowex2y3s3t3nx0y3 + p0nx2y3SuperFlownx0y3 - p0nx2y3Conservenx0y3 = 0
p0nx2y1SuperFlownx0y3 = 0
 + p0Flowex1y1s2t1nx0y3 - p0Flowex2y1s3t1nx0y3 + p0Flowex2y0s2t1nx0y3 + p0nx2y1SuperFlownx0y3 - p0nx2y1Conservenx0y3 = 0
p0nx3y3SuperFlownx0y3 = 0
 + p0Flowex2y3s3t3nx0y3 - p0Flowex3y3s3t4nx0y3 + p0Flowex3y2s3t3nx0y3 - p0Flowex3y3s4t3nx0y3 + p0nx3y3SuperFlownx0y3 - p0nx3y3Conservenx0y3 = 0
p0nx3y1SuperFlownx0y3 = 0
 + p0Flowex2y1s3t1nx0y3 - p0Flowex3y1s3t2nx0y3 - p0Flowex3y1s4t1nx0y3 + p0nx3y1SuperFlownx0y3 - p0nx3y1Conservenx0y3 = 0
p0nx3y4SuperFlownx0y3 = 0
 + p0Flowex3y3s3t4nx0y3 - p0Flowex3y4s4t4nx0y3 + p0nx3y4SuperFlownx0y3 - p0nx3y4Conservenx0y3 = 0
p0nx3y2SuperFlownx0y3 = 0
 - p0Flowex3y2s3t3nx0y3 + p0Flowex3y1s3t2nx0y3 + p0nx3y2SuperFlownx0y3 - p0nx3y2Conservenx0y3 = 0
p0nx4y3SuperFlownx0y3 = 0
 + p0Flowex3y3s4t3nx0y3 + p0Flowex4y2s4t3nx0y3 - p0Flowex4y3s4t4nx0y3 + p0nx4y3SuperFlownx0y3 - p0nx4y3Conservenx0y3 = 0
p0nx2y0SuperFlownx0y3 = 0
 + p0Flowex1y0s2t0nx0y3 - p0Flowex2y0s2t1nx0y3 + p0nx2y0SuperFlownx0y3 - p0nx2y0Conservenx0y3 = 0
p0nx4y2SuperFlownx0y3 = 0
 + p0Flowex4y1s4t2nx0y3 - p0Flowex4y2s4t3nx0y3 + p0nx4y2SuperFlownx0y3 - p0nx4y2Conservenx0y3 = 0
p0nx4y4SuperFlownx0y3 = 0
 + p0Flowex3y4s4t4nx0y3 + p0Flowex4y3s4t4nx0y3 + p0nx4y4SuperFlownx0y3 - p0nx4y4Conservenx0y3 = 0
p0nx0y3Conservenx0y3 + p0nx1y3Conservenx0y3 + 10000 p0Useex0y3s1t3 <= 10001
p0nx0y3Conservenx0y3 + p0nx1y3Conservenx0y3 - 10000 p0Useex0y3s1t3 >= -9999
p0nx0y3Conservenx0y3 - p0nx1y3Conservenx0y3 - 10000 p0Useex0y3s1t3 <= 0
p0nx0y3Conservenx0y3 - p0nx1y3Conservenx0y3 + 10000 p0Useex0y3s1t3 >= 0
p0nx1y2Conservenx0y3 + p0nx1y3Conservenx0y3 + 10000 p0Useex1y2s1t3 <= 10001
p0nx1y2Conservenx0y3 + p0nx1y3Conservenx0y3 - 10000 p0Useex1y2s1t3 >= -9999
p0nx1y2Conservenx0y3 - p0nx1y3Conservenx0y3 - 10000 p0Useex1y2s1t3 <= 0
p0nx1y2Conservenx0y3 - p0nx1y3Conservenx0y3 + 10000 p0Useex1y2s1t3 >= 0
p0nx1y1Conservenx0y3 + p0nx1y2Conservenx0y3 + 10000 p0Useex1y1s1t2 <= 10001
p0nx1y1Conservenx0y3 + p0nx1y2Conservenx0y3 - 10000 p0Useex1y1s1t2 >= -9999
p0nx1y1Conservenx0y3 - p0nx1y2Conservenx0y3 - 10000 p0Useex1y1s1t2 <= 0
p0nx1y1Conservenx0y3 - p0nx1y2Conservenx0y3 + 10000 p0Useex1y1s1t2 >= 0
p0nx1y0Conservenx0y3 + p0nx1y1Conservenx0y3 + 10000 p0Useex1y0s1t1 <= 10001
p0nx1y0Conservenx0y3 + p0nx1y1Conservenx0y3 - 10000 p0Useex1y0s1t1 >= -9999
p0nx1y0Conservenx0y3 - p0nx1y1Conservenx0y3 - 10000 p0Useex1y0s1t1 <= 0
p0nx1y0Conservenx0y3 - p0nx1y1Conservenx0y3 + 10000 p0Useex1y0s1t1 >= 0
p0nx1y3Conservenx0y3 + p0nx2y3Conservenx0y3 + 10000 p0Useex1y3s2t3 <= 10001
p0nx1y3Conservenx0y3 + p0nx2y3Conservenx0y3 - 10000 p0Useex1y3s2t3 >= -9999
p0nx1y3Conservenx0y3 - p0nx2y3Conservenx0y3 - 10000 p0Useex1y3s2t3 <= 0
p0nx1y3Conservenx0y3 - p0nx2y3Conservenx0y3 + 10000 p0Useex1y3s2t3 >= 0
p0nx1y1Conservenx0y3 + p0nx2y1Conservenx0y3 + 10000 p0Useex1y1s2t1 <= 10001
p0nx1y1Conservenx0y3 + p0nx2y1Conservenx0y3 - 10000 p0Useex1y1s2t1 >= -9999
p0nx1y1Conservenx0y3 - p0nx2y1Conservenx0y3 - 10000 p0Useex1y1s2t1 <= 0
p0nx1y1Conservenx0y3 - p0nx2y1Conservenx0y3 + 10000 p0Useex1y1s2t1 >= 0
p0nx2y3Conservenx0y3 + p0nx3y3Conservenx0y3 + 10000 p0Useex2y3s3t3 <= 10001
p0nx2y3Conservenx0y3 + p0nx3y3Conservenx0y3 - 10000 p0Useex2y3s3t3 >= -9999
p0nx2y3Conservenx0y3 - p0nx3y3Conservenx0y3 - 10000 p0Useex2y3s3t3 <= 0
p0nx2y3Conservenx0y3 - p0nx3y3Conservenx0y3 + 10000 p0Useex2y3s3t3 >= 0
p0nx2y1Conservenx0y3 + p0nx3y1Conservenx0y3 + 10000 p0Useex2y1s3t1 <= 10001
p0nx2y1Conservenx0y3 + p0nx3y1Conservenx0y3 - 10000 p0Useex2y1s3t1 >= -9999
p0nx2y1Conservenx0y3 - p0nx3y1Conservenx0y3 - 10000 p0Useex2y1s3t1 <= 0
p0nx2y1Conservenx0y3 - p0nx3y1Conservenx0y3 + 10000 p0Useex2y1s3t1 >= 0
p0nx3y3Conservenx0y3 + p0nx3y4Conservenx0y3 + 10000 p0Useex3y3s3t4 <= 10001
p0nx3y3Conservenx0y3 + p0nx3y4Conservenx0y3 - 10000 p0Useex3y3s3t4 >= -9999
p0nx3y3Conservenx0y3 - p0nx3y4Conservenx0y3 - 10000 p0Useex3y3s3t4 <= 0
p0nx3y3Conservenx0y3 - p0nx3y4Conservenx0y3 + 10000 p0Useex3y3s3t4 >= 0
p0nx3y2Conservenx0y3 + p0nx3y3Conservenx0y3 + 10000 p0Useex3y2s3t3 <= 10001
p0nx3y2Conservenx0y3 + p0nx3y3Conservenx0y3 - 10000 p0Useex3y2s3t3 >= -9999
p0nx3y2Conservenx0y3 - p0nx3y3Conservenx0y3 - 10000 p0Useex3y2s3t3 <= 0
p0nx3y2Conservenx0y3 - p0nx3y3Conservenx0y3 + 10000 p0Useex3y2s3t3 >= 0
p0nx3y1Conservenx0y3 + p0nx3y2Conservenx0y3 + 10000 p0Useex3y1s3t2 <= 10001
p0nx3y1Conservenx0y3 + p0nx3y2Conservenx0y3 - 10000 p0Useex3y1s3t2 >= -9999
p0nx3y1Conservenx0y3 - p0nx3y2Conservenx0y3 - 10000 p0Useex3y1s3t2 <= 0
p0nx3y1Conservenx0y3 - p0nx3y2Conservenx0y3 + 10000 p0Useex3y1s3t2 >= 0
p0nx3y3Conservenx0y3 + p0nx4y3Conservenx0y3 + 10000 p0Useex3y3s4t3 <= 10001
p0nx3y3Conservenx0y3 + p0nx4y3Conservenx0y3 - 10000 p0Useex3y3s4t3 >= -9999
p0nx3y3Conservenx0y3 - p0nx4y3Conservenx0y3 - 10000 p0Useex3y3s4t3 <= 0
p0nx3y3Conservenx0y3 - p0nx4y3Conservenx0y3 + 10000 p0Useex3y3s4t3 >= 0
p0nx3y1Conservenx0y3 + p0nx4y1Conservenx0y3 + 10000 p0Useex3y1s4t1 <= 10001
p0nx3y1Conservenx0y3 + p0nx4y1Conservenx0y3 - 10000 p0Useex3y1s4t1 >= -9999
p0nx3y1Conservenx0y3 - p0nx4y1Conservenx0y3 - 10000 p0Useex3y1s4t1 <= 0
p0nx3y1Conservenx0y3 - p0nx4y1Conservenx0y3 + 10000 p0Useex3y1s4t1 >= 0
p0nx1y0Conservenx0y3 + p0nx2y0Conservenx0y3 + 10000 p0Useex1y0s2t0 <= 10001
p0nx1y0Conservenx0y3 + p0nx2y0Conservenx0y3 - 10000 p0Useex1y0s2t0 >= -9999
p0nx1y0Conservenx0y3 - p0nx2y0Conservenx0y3 - 10000 p0Useex1y0s2t0 <= 0
p0nx1y0Conservenx0y3 - p0nx2y0Conservenx0y3 + 10000 p0Useex1y0s2t0 >= 0
p0nx2y0Conservenx0y3 + p0nx2y1Conservenx0y3 + 10000 p0Useex2y0s2t1 <= 10001
p0nx2y0Conservenx0y3 + p0nx2y1Conservenx0y3 - 10000 p0Useex2y0s2t1 >= -9999
p0nx2y0Conservenx0y3 - p0nx2y1Conservenx0y3 - 10000 p0Useex2y0s2t1 <= 0
p0nx2y0Conservenx0y3 - p0nx2y1Conservenx0y3 + 10000 p0Useex2y0s2t1 >= 0
p0nx4y1Conservenx0y3 + p0nx4y2Conservenx0y3 + 10000 p0Useex4y1s4t2 <= 10001
p0nx4y1Conservenx0y3 + p0nx4y2Conservenx0y3 - 10000 p0Useex4y1s4t2 >= -9999
p0nx4y1Conservenx0y3 - p0nx4y2Conservenx0y3 - 10000 p0Useex4y1s4t2 <= 0
p0nx4y1Conservenx0y3 - p0nx4y2Conservenx0y3 + 10000 p0Useex4y1s4t2 >= 0
p0nx4y2Conservenx0y3 + p0nx4y3Conservenx0y3 + 10000 p0Useex4y2s4t3 <= 10001
p0nx4y2Conservenx0y3 + p0nx4y3Conservenx0y3 - 10000 p0Useex4y2s4t3 >= -9999
p0nx4y2Conservenx0y3 - p0nx4y3Conservenx0y3 - 10000 p0Useex4y2s4t3 <= 0
p0nx4y2Conservenx0y3 - p0nx4y3Conservenx0y3 + 10000 p0Useex4y2s4t3 >= 0
p0nx3y4Conservenx0y3 + p0nx4y4Conservenx0y3 + 10000 p0Useex3y4s4t4 <= 10001
p0nx3y4Conservenx0y3 + p0nx4y4Conservenx0y3 - 10000 p0Useex3y4s4t4 >= -9999
p0nx3y4Conservenx0y3 - p0nx4y4Conservenx0y3 - 10000 p0Useex3y4s4t4 <= 0
p0nx3y4Conservenx0y3 - p0nx4y4Conservenx0y3 + 10000 p0Useex3y4s4t4 >= 0
p0nx4y3Conservenx0y3 + p0nx4y4Conservenx0y3 + 10000 p0Useex4y3s4t4 <= 10001
p0nx4y3Conservenx0y3 + p0nx4y4Conservenx0y3 - 10000 p0Useex4y3s4t4 >= -9999
p0nx4y3Conservenx0y3 - p0nx4y4Conservenx0y3 - 10000 p0Useex4y3s4t4 <= 0
p0nx4y3Conservenx0y3 - p0nx4y4Conservenx0y3 + 10000 p0Useex4y3s4t4 >= 0
p0nx0y3SuperFlownx4y1 = 0
 - p0Flowex0y3s1t3nx4y1 + p0nx0y3SuperFlownx4y1 - p0nx0y3Conservenx4y1 = 0
 + p0Flowex3y1s4t1nx4y1 - p0Flowex4y1s4t2nx4y1 + p0nx4y1SuperFlownx4y1 - p0nx4y1Conservenx4y1 = 0
p0nx1y3SuperFlownx4y1 = 0
 + p0Flowex0y3s1t3nx4y1 + p0Flowex1y2s1t3nx4y1 - p0Flowex1y3s2t3nx4y1 + p0nx1y3SuperFlownx4y1 - p0nx1y3Conservenx4y1 = 0
p0nx1y2SuperFlownx4y1 = 0
 - p0Flowex1y2s1t3nx4y1 + p0Flowex1y1s1t2nx4y1 + p0nx1y2SuperFlownx4y1 - p0nx1y2Conservenx4y1 = 0
p0nx1y1SuperFlownx4y1 = 0
 - p0Flowex1y1s1t2nx4y1 + p0Flowex1y0s1t1nx4y1 - p0Flowex1y1s2t1nx4y1 + p0nx1y1SuperFlownx4y1 - p0nx1y1Conservenx4y1 = 0
p0nx1y0SuperFlownx4y1 = 0
 - p0Flowex1y0s1t1nx4y1 - p0Flowex1y0s2t0nx4y1 + p0nx1y0SuperFlownx4y1 - p0nx1y0Conservenx4y1 = 0
p0nx2y3SuperFlownx4y1 = 0
 + p0Flowex1y3s2t3nx4y1 - p0Flowex2y3s3t3nx4y1 + p0nx2y3SuperFlownx4y1 - p0nx2y3Conservenx4y1 = 0
p0nx2y1SuperFlownx4y1 = 0
 + p0Flowex1y1s2t1nx4y1 - p0Flowex2y1s3t1nx4y1 + p0Flowex2y0s2t1nx4y1 + p0nx2y1SuperFlownx4y1 - p0nx2y1Conservenx4y1 = 0
p0nx3y3SuperFlownx4y1 = 0
 + p0Flowex2y3s3t3nx4y1 - p0Flowex3y3s3t4nx4y1 + p0Flowex3y2s3t3nx4y1 - p0Flowex3y3s4t3nx4y1 + p0nx3y3SuperFlownx4y1 - p0nx3y3Conservenx4y1 = 0
p0nx3y1SuperFlownx4y1 = 0
 + p0Flowex2y1s3t1nx4y1 - p0Flowex3y1s3t2nx4y1 - p0Flowex3y1s4t1nx4y1 + p0nx3y1SuperFlownx4y1 - p0nx3y1Conservenx4y1 = 0
p0nx3y4SuperFlownx4y1 = 0
 + p0Flowex3y3s3t4nx4y1 - p0Flowex3y4s4t4nx4y1 + p0nx3y4SuperFlownx4y1 - p0nx3y4Conservenx4y1 = 0
p0nx3y2SuperFlownx4y1 = 0
 - p0Flowex3y2s3t3nx4y1 + p0Flowex3y1s3t2nx4y1 + p0nx3y2SuperFlownx4y1 - p0nx3y2Conservenx4y1 = 0
p0nx4y3SuperFlownx4y1 = 0
 + p0Flowex3y3s4t3nx4y1 + p0Flowex4y2s4t3nx4y1 - p0Flowex4y3s4t4nx4y1 + p0nx4y3SuperFlownx4y1 - p0nx4y3Conservenx4y1 = 0
p0nx2y0SuperFlownx4y1 = 0
 + p0Flowex1y0s2t0nx4y1 - p0Flowex2y0s2t1nx4y1 + p0nx2y0SuperFlownx4y1 - p0nx2y0Conservenx4y1 = 0
p0nx4y2SuperFlownx4y1 = 0
 + p0Flowex4y1s4t2nx4y1 - p0Flowex4y2s4t3nx4y1 + p0nx4y2SuperFlownx4y1 - p0nx4y2Conservenx4y1 = 0
p0nx4y4SuperFlownx4y1 = 0
 + p0Flowex3y4s4t4nx4y1 + p0Flowex4y3s4t4nx4y1 + p0nx4y4SuperFlownx4y1 - p0nx4y4Conservenx4y1 = 0
p0nx0y3Conservenx4y1 + p0nx1y3Conservenx4y1 + 10000 p0Useex0y3s1t3 <= 10001
p0nx0y3Conservenx4y1 + p0nx1y3Conservenx4y1 - 10000 p0Useex0y3s1t3 >= -9999
p0nx0y3Conservenx4y1 - p0nx1y3Conservenx4y1 - 10000 p0Useex0y3s1t3 <= 0
p0nx0y3Conservenx4y1 - p0nx1y3Conservenx4y1 + 10000 p0Useex0y3s1t3 >= 0
p0nx1y2Conservenx4y1 + p0nx1y3Conservenx4y1 + 10000 p0Useex1y2s1t3 <= 10001
p0nx1y2Conservenx4y1 + p0nx1y3Conservenx4y1 - 10000 p0Useex1y2s1t3 >= -9999
p0nx1y2Conservenx4y1 - p0nx1y3Conservenx4y1 - 10000 p0Useex1y2s1t3 <= 0
p0nx1y2Conservenx4y1 - p0nx1y3Conservenx4y1 + 10000 p0Useex1y2s1t3 >= 0
p0nx1y1Conservenx4y1 + p0nx1y2Conservenx4y1 + 10000 p0Useex1y1s1t2 <= 10001
p0nx1y1Conservenx4y1 + p0nx1y2Conservenx4y1 - 10000 p0Useex1y1s1t2 >= -9999
p0nx1y1Conservenx4y1 - p0nx1y2Conservenx4y1 - 10000 p0Useex1y1s1t2 <= 0
p0nx1y1Conservenx4y1 - p0nx1y2Conservenx4y1 + 10000 p0Useex1y1s1t2 >= 0
p0nx1y0Conservenx4y1 + p0nx1y1Conservenx4y1 + 10000 p0Useex1y0s1t1 <= 10001
p0nx1y0Conservenx4y1 + p0nx1y1Conservenx4y1 - 10000 p0Useex1y0s1t1 >= -9999
p0nx1y0Conservenx4y1 - p0nx1y1Conservenx4y1 - 10000 p0Useex1y0s1t1 <= 0
p0nx1y0Conservenx4y1 - p0nx1y1Conservenx4y1 + 10000 p0Useex1y0s1t1 >= 0
p0nx1y3Conservenx4y1 + p0nx2y3Conservenx4y1 + 10000 p0Useex1y3s2t3 <= 10001
p0nx1y3Conservenx4y1 + p0nx2y3Conservenx4y1 - 10000 p0Useex1y3s2t3 >= -9999
p0nx1y3Conservenx4y1 - p0nx2y3Conservenx4y1 - 10000 p0Useex1y3s2t3 <= 0
p0nx1y3Conservenx4y1 - p0nx2y3Conservenx4y1 + 10000 p0Useex1y3s2t3 >= 0
p0nx1y1Conservenx4y1 + p0nx2y1Conservenx4y1 + 10000 p0Useex1y1s2t1 <= 10001
p0nx1y1Conservenx4y1 + p0nx2y1Conservenx4y1 - 10000 p0Useex1y1s2t1 >= -9999
p0nx1y1Conservenx4y1 - p0nx2y1Conservenx4y1 - 10000 p0Useex1y1s2t1 <= 0
p0nx1y1Conservenx4y1 - p0nx2y1Conservenx4y1 + 10000 p0Useex1y1s2t1 >= 0
p0nx2y3Conservenx4y1 + p0nx3y3Conservenx4y1 + 10000 p0Useex2y3s3t3 <= 10001
p0nx2y3Conservenx4y1 + p0nx3y3Conservenx4y1 - 10000 p0Useex2y3s3t3 >= -9999
p0nx2y3Conservenx4y1 - p0nx3y3Conservenx4y1 - 10000 p0Useex2y3s3t3 <= 0
p0nx2y3Conservenx4y1 - p0nx3y3Conservenx4y1 + 10000 p0Useex2y3s3t3 >= 0
p0nx2y1Conservenx4y1 + p0nx3y1Conservenx4y1 + 10000 p0Useex2y1s3t1 <= 10001
p0nx2y1Conservenx4y1 + p0nx3y1Conservenx4y1 - 10000 p0Useex2y1s3t1 >= -9999
p0nx2y1Conservenx4y1 - p0nx3y1Conservenx4y1 - 10000 p0Useex2y1s3t1 <= 0
p0nx2y1Conservenx4y1 - p0nx3y1Conservenx4y1 + 10000 p0Useex2y1s3t1 >= 0
p0nx3y3Conservenx4y1 + p0nx3y4Conservenx4y1 + 10000 p0Useex3y3s3t4 <= 10001
p0nx3y3Conservenx4y1 + p0nx3y4Conservenx4y1 - 10000 p0Useex3y3s3t4 >= -9999
p0nx3y3Conservenx4y1 - p0nx3y4Conservenx4y1 - 10000 p0Useex3y3s3t4 <= 0
p0nx3y3Conservenx4y1 - p0nx3y4Conservenx4y1 + 10000 p0Useex3y3s3t4 >= 0
p0nx3y2Conservenx4y1 + p0nx3y3Conservenx4y1 + 10000 p0Useex3y2s3t3 <= 10001
p0nx3y2Conservenx4y1 + p0nx3y3Conservenx4y1 - 10000 p0Useex3y2s3t3 >= -9999
p0nx3y2Conservenx4y1 - p0nx3y3Conservenx4y1 - 10000 p0Useex3y2s3t3 <= 0
p0nx3y2Conservenx4y1 - p0nx3y3Conservenx4y1 + 10000 p0Useex3y2s3t3 >= 0
p0nx3y1Conservenx4y1 + p0nx3y2Conservenx4y1 + 10000 p0Useex3y1s3t2 <= 10001
p0nx3y1Conservenx4y1 + p0nx3y2Conservenx4y1 - 10000 p0Useex3y1s3t2 >= -9999
p0nx3y1Conservenx4y1 - p0nx3y2Conservenx4y1 - 10000 p0Useex3y1s3t2 <= 0
p0nx3y1Conservenx4y1 - p0nx3y2Conservenx4y1 + 10000 p0Useex3y1s3t2 >= 0
p0nx3y3Conservenx4y1 + p0nx4y3Conservenx4y1 + 10000 p0Useex3y3s4t3 <= 10001
p0nx3y3Conservenx4y1 + p0nx4y3Conservenx4y1 - 10000 p0Useex3y3s4t3 >= -9999
p0nx3y3Conservenx4y1 - p0nx4y3Conservenx4y1 - 10000 p0Useex3y3s4t3 <= 0
p0nx3y3Conservenx4y1 - p0nx4y3Conservenx4y1 + 10000 p0Useex3y3s4t3 >= 0
p0nx3y1Conservenx4y1 + p0nx4y1Conservenx4y1 + 10000 p0Useex3y1s4t1 <= 10001
p0nx3y1Conservenx4y1 + p0nx4y1Conservenx4y1 - 10000 p0Useex3y1s4t1 >= -9999
p0nx3y1Conservenx4y1 - p0nx4y1Conservenx4y1 - 10000 p0Useex3y1s4t1 <= 0
p0nx3y1Conservenx4y1 - p0nx4y1Conservenx4y1 + 10000 p0Useex3y1s4t1 >= 0
p0nx1y0Conservenx4y1 + p0nx2y0Conservenx4y1 + 10000 p0Useex1y0s2t0 <= 10001
p0nx1y0Conservenx4y1 + p0nx2y0Conservenx4y1 - 10000 p0Useex1y0s2t0 >= -9999
p0nx1y0Conservenx4y1 - p0nx2y0Conservenx4y1 - 10000 p0Useex1y0s2t0 <= 0
p0nx1y0Conservenx4y1 - p0nx2y0Conservenx4y1 + 10000 p0Useex1y0s2t0 >= 0
p0nx2y0Conservenx4y1 + p0nx2y1Conservenx4y1 + 10000 p0Useex2y0s2t1 <= 10001
p0nx2y0Conservenx4y1 + p0nx2y1Conservenx4y1 - 10000 p0Useex2y0s2t1 >= -9999
p0nx2y0Conservenx4y1 - p0nx2y1Conservenx4y1 - 10000 p0Useex2y0s2t1 <= 0
p0nx2y0Conservenx4y1 - p0nx2y1Conservenx4y1 + 10000 p0Useex2y0s2t1 >= 0
p0nx4y1Conservenx4y1 + p0nx4y2Conservenx4y1 + 10000 p0Useex4y1s4t2 <= 10001
p0nx4y1Conservenx4y1 + p0nx4y2Conservenx4y1 - 10000 p0Useex4y1s4t2 >= -9999
p0nx4y1Conservenx4y1 - p0nx4y2Conservenx4y1 - 10000 p0Useex4y1s4t2 <= 0
p0nx4y1Conservenx4y1 - p0nx4y2Conservenx4y1 + 10000 p0Useex4y1s4t2 >= 0
p0nx4y2Conservenx4y1 + p0nx4y3Conservenx4y1 + 10000 p0Useex4y2s4t3 <= 10001
p0nx4y2Conservenx4y1 + p0nx4y3Conservenx4y1 - 10000 p0Useex4y2s4t3 >= -9999
p0nx4y2Conservenx4y1 - p0nx4y3Conservenx4y1 - 10000 p0Useex4y2s4t3 <= 0
p0nx4y2Conservenx4y1 - p0nx4y3Conservenx4y1 + 10000 p0Useex4y2s4t3 >= 0
p0nx3y4Conservenx4y1 + p0nx4y4Conservenx4y1 + 10000 p0Useex3y4s4t4 <= 10001
p0nx3y4Conservenx4y1 + p0nx4y4Conservenx4y1 - 10000 p0Useex3y4s4t4 >= -9999
p0nx3y4Conservenx4y1 - p0nx4y4Conservenx4y1 - 10000 p0Useex3y4s4t4 <= 0
p0nx3y4Conservenx4y1 - p0nx4y4Conservenx4y1 + 10000 p0Useex3y4s4t4 >= 0
p0nx4y3Conservenx4y1 + p0nx4y4Conservenx4y1 + 10000 p0Useex4y3s4t4 <= 10001
p0nx4y3Conservenx4y1 + p0nx4y4Conservenx4y1 - 10000 p0Useex4y3s4t4 >= -9999
p0nx4y3Conservenx4y1 - p0nx4y4Conservenx4y1 - 10000 p0Useex4y3s4t4 <= 0
p0nx4y3Conservenx4y1 - p0nx4y4Conservenx4y1 + 10000 p0Useex4y3s4t4 >= 0
Bounds
-1000 <= p0Flowex0y3s1t3nx0y3 <= 1000
-1000 <= p0Flowex0y3s1t3nx4y1 <= 1000
-1000 <= p0Flowex1y2s1t3nx0y3 <= 1000
-1000 <= p0Flowex1y2s1t3nx4y1 <= 1000
-1000 <= p0Flowex1y1s1t2nx0y3 <= 1000
-1000 <= p0Flowex1y1s1t2nx4y1 <= 1000
-1000 <= p0Flowex1y0s1t1nx0y3 <= 1000
-1000 <= p0Flowex1y0s1t1nx4y1 <= 1000
-1000 <= p0Flowex1y3s2t3nx0y3 <= 1000
-1000 <= p0Flowex1y3s2t3nx4y1 <= 1000
-1000 <= p0Flowex1y1s2t1nx0y3 <= 1000
-1000 <= p0Flowex1y1s2t1nx4y1 <= 1000
-1000 <= p0Flowex2y3s3t3nx0y3 <= 1000
-1000 <= p0Flowex2y3s3t3nx4y1 <= 1000
-1000 <= p0Flowex2y1s3t1nx0y3 <= 1000
-1000 <= p0Flowex2y1s3t1nx4y1 <= 1000
-1000 <= p0Flowex3y3s3t4nx0y3 <= 1000
-1000 <= p0Flowex3y3s3t4nx4y1 <= 1000
-1000 <= p0Flowex3y2s3t3nx0y3 <= 1000
-1000 <= p0Flowex3y2s3t3nx4y1 <= 1000
-1000 <= p0Flowex3y1s3t2nx0y3 <= 1000
-1000 <= p0Flowex3y1s3t2nx4y1 <= 1000
-1000 <= p0Flowex3y3s4t3nx0y3 <= 1000
-1000 <= p0Flowex3y3s4t3nx4y1 <= 1000
-1000 <= p0Flowex3y1s4t1nx0y3 <= 1000
-1000 <= p0Flowex3y1s4t1nx4y1 <= 1000
-1000 <= p0Flowex1y0s2t0nx0y3 <= 1000
-1000 <= p0Flowex1y0s2t0nx4y1 <= 1000
-1000 <= p0Flowex2y0s2t1nx0y3 <= 1000
-1000 <= p0Flowex2y0s2t1nx4y1 <= 1000
-1000 <= p0Flowex4y1s4t2nx0y3 <= 1000
-1000 <= p0Flowex4y1s4t2nx4y1 <= 1000
-1000 <= p0Flowex4y2s4t3nx0y3 <= 1000
-1000 <= p0Flowex4y2s4t3nx4y1 <= 1000
-1000 <= p0Flowex3y4s4t4nx0y3 <= 1000
-1000 <= p0Flowex3y4s4t4nx4y1 <= 1000
-1000 <= p0Flowex4y3s4t4nx0y3 <= 1000
-1000 <= p0Flowex4y3s4t4nx4y1 <= 1000
-1 <= p0nx0y3Conservenx0y3 <= 1
-1000 <= p0nx0y3SuperFlownx0y3 <= 1000
-1 <= p0nx4y1Conservenx0y3 <= 1
-1000 <= p0nx4y1SuperFlownx0y3 <= 1000
-1 <= p0nx1y3Conservenx0y3 <= 1
-1000 <= p0nx1y3SuperFlownx0y3 <= 1000
-1 <= p0nx1y2Conservenx0y3 <= 1
-1000 <= p0nx1y2SuperFlownx0y3 <= 1000
-1 <= p0nx1y1Conservenx0y3 <= 1
-1000 <= p0nx1y1SuperFlownx0y3 <= 1000
-1 <= p0nx1y0Conservenx0y3 <= 1
-1000 <= p0nx1y0SuperFlownx0y3 <= 1000
-1 <= p0nx2y3Conservenx0y3 <= 1
-1000 <= p0nx2y3SuperFlownx0y3 <= 1000
-1 <= p0nx2y1Conservenx0y3 <= 1
-1000 <= p0nx2y1SuperFlownx0y3 <= 1000
-1 <= p0nx3y3Conservenx0y3 <= 1
-1000 <= p0nx3y3SuperFlownx0y3 <= 1000
-1 <= p0nx3y1Conservenx0y3 <= 1
-1000 <= p0nx3y1SuperFlownx0y3 <= 1000
-1 <= p0nx3y4Conservenx0y3 <= 1
-1000 <= p0nx3y4SuperFlownx0y3 <= 1000
-1 <= p0nx3y2Conservenx0y3 <= 1
-1000 <= p0nx3y2SuperFlownx0y3 <= 1000
-1 <= p0nx4y3Conservenx0y3 <= 1
-1000 <= p0nx4y3SuperFlownx0y3 <= 1000
-1 <= p0nx2y0Conservenx0y3 <= 1
-1000 <= p0nx2y0SuperFlownx0y3 <= 1000
-1 <= p0nx4y2Conservenx0y3 <= 1
-1000 <= p0nx4y2SuperFlownx0y3 <= 1000
-1 <= p0nx4y4Conservenx0y3 <= 1
-1000 <= p0nx4y4SuperFlownx0y3 <= 1000
-1 <= p0nx0y3Conservenx4y1 <= 1
-1000 <= p0nx0y3SuperFlownx4y1 <= 1000
-1 <= p0nx4y1Conservenx4y1 <= 1
-1000 <= p0nx4y1SuperFlownx4y1 <= 1000
-1 <= p0nx1y3Conservenx4y1 <= 1
-1000 <= p0nx1y3SuperFlownx4y1 <= 1000
-1 <= p0nx1y2Conservenx4y1 <= 1
-1000 <= p0nx1y2SuperFlownx4y1 <= 1000
-1 <= p0nx1y1Conservenx4y1 <= 1
-1000 <= p0nx1y1SuperFlownx4y1 <= 1000
-1 <= p0nx1y0Conservenx4y1 <= 1
-1000 <= p0nx1y0SuperFlownx4y1 <= 1000
-1 <= p0nx2y3Conservenx4y1 <= 1
-1000 <= p0nx2y3SuperFlownx4y1 <= 1000
-1 <= p0nx2y1Conservenx4y1 <= 1
-1000 <= p0nx2y1SuperFlownx4y1 <= 1000
-1 <= p0nx3y3Conservenx4y1 <= 1
-1000 <= p0nx3y3SuperFlownx4y1 <= 1000
-1 <= p0nx3y1Conservenx4y1 <= 1
-1000 <= p0nx3y1SuperFlownx4y1 <= 1000
-1 <= p0nx3y4Conservenx4y1 <= 1
-1000 <= p0nx3y4SuperFlownx4y1 <= 1000
-1 <= p0nx3y2Conservenx4y1 <= 1
-1000 <= p0nx3y2SuperFlownx4y1 <= 1000
-1 <= p0nx4y3Conservenx4y1 <= 1
-1000 <= p0nx4y3SuperFlownx4y1 <= 1000
-1 <= p0nx2y0Conservenx4y1 <= 1
-1000 <= p0nx2y0SuperFlownx4y1 <= 1000
-1 <= p0nx4y2Conservenx4y1 <= 1
-1000 <= p0nx4y2SuperFlownx4y1 <= 1000
-1 <= p0nx4y4Conservenx4y1 <= 1
-1000 <= p0nx4y4SuperFlownx4y1 <= 1000
Binaries
p0Useex0y3s1t3
p0Useex1y2s1t3
p0Useex1y1s1t2
p0Useex1y0s1t1
p0Useex1y3s2t3
p0Useex1y1s2t1
p0Useex2y3s3t3
p0Useex2y1s3t1
p0Useex3y3s3t4
p0Useex3y2s3t3
p0Useex3y1s3t2
p0Useex3y3s4t3
p0Useex3y1s4t1
p0Useex1y0s2t0
p0Useex2y0s2t1
p0Useex4y1s4t2
p0Useex4y2s4t3
p0Useex3y4s4t4
p0Useex4y3s4t4
p0nx0y3reachnx0y3
p0nx0y3reachnx4y1
p0nx0y3reachnx1y3
p0nx0y3reachnx1y2
p0nx0y3reachnx1y1
p0nx0y3reachnx1y0
p0nx0y3reachnx2y3
p0nx0y3reachnx2y1
p0nx0y3reachnx3y3
p0nx0y3reachnx3y1
p0nx0y3reachnx3y4
p0nx0y3reachnx3y2
p0nx0y3reachnx4y3
p0nx0y3reachnx2y0
p0nx0y3reachnx4y2
p0nx0y3reachnx4y4
